# Solution for model r10_t9_m3_9
# Finished Task: 9 / 9
# Makespan: 567.0, Total Distance: 635.0, Total Time: 0.0356
# R O S F
0 0 10 0.0 0.0
1 1 11 0.0 0.0
2 2 18 0.0 0.0
3 3 17 0.0 0.0
4 4 -1 0.0 0.0
5 5 -1 0.0 0.0
6 6 -1 0.0 0.0
7 7 -1 0.0 0.0
8 8 -1 0.0 0.0
9 9 -1 0.0 0.0
10 0 14 210.0 244.0
11 1 15 114.0 138.0
12 0 -1 491.0 520.0
13 2 -1 539.0 567.0
14 0 12 387.0 415.0
15 1 16 415.0 442.0
16 1 -1 511.0 539.0
17 3 -1 491.0 511.0
18 2 13 462.0 491.0
